NAME: random-93-19990
TYPE: TSP
COMMENT: size=93 seed=19990
DIMENSION: 188
EDGE_WEIGHT_TYPE: EUC_2D
NODE_COORD_SECTION
+0 930 547
-0 930 547
+1 150 8
-1 380 430
+2 157 362
-2 698 549
+3 410 503
-3 134 534
+4 578 719
-4 992 488
+5 755 294
-5 779 877
+6 42 819
-6 824 283
+7 35 298
-7 571 48
+8 718 974
-8 942 703
+9 248 870
-9 140 749
+10 444 553
-10 155 467
+11 269 106
-11 698 895
+12 263 649
-12 656 267
+13 729 295
-13 213 884
+14 685 272
-14 475 100
+15 432 345
-15 470 841
+16 856 992
-16 190 909
+17 305 992
-17 197 877
+18 564 121
-18 267 112
+19 300 993
-19 116 98
+20 294 678
-20 611 976
+21 498 202
-21 51 460
+22 77 6
-22 453 189
+23 598 960
-23 528 923
+24 501 443
-24 819 519
+25 210 639
-25 863 812
+26 46 151
-26 350 10
+27 159 252
-27 151 864
+28 908 415
-28 620 716
+29 709 966
-29 631 151
+30 154 47
-30 887 113
+31 611 37
-31 914 335
+32 388 871
-32 270 352
+33 945 340
-33 666 540
+34 167 877
-34 451 749
+35 88 284
-35 921 663
+36 408 463
-36 2 286
+37 770 985
-37 355 856
+38 257 339
-38 953 157
+39 906 754
-39 328 449
+40 532 559
-40 916 186
+41 771 532
-41 125 727
+42 160 966
-42 306 572
+43 596 46
-43 820 59
+44 974 510
-44 985 183
+45 208 303
-45 290 882
+46 708 756
-46 545 807
+47 770 224
-47 820 562
+48 3 929
-48 227 380
+49 581 634
-49 256 685
+50 76 111
-50 569 574
+51 728 249
-51 369 569
+52 961 458
-52 854 796
+53 738 111
-53 108 555
+54 38 649
-54 968 243
+55 633 702
-55 183 199
+56 463 479
-56 398 492
+57 557 9
-57 4 623
+58 229 206
-58 156 391
+59 654 198
-59 853 974
+60 413 320
-60 235 712
+61 917 464
-61 356 630
+62 369 650
-62 443 621
+63 947 297
-63 630 60
+64 949 902
-64 49 20
+65 173 695
-65 80 649
+66 726 275
-66 182 4
+67 490 66
-67 479 923
+68 929 933
-68 468 11
+69 257 117
-69 232 420
+70 821 658
-70 862 892
+71 894 448
-71 151 524
+72 162 865
-72 884 719
+73 514 590
-73 687 873
+74 528 644
-74 239 351
+75 171 763
-75 899 26
+76 184 734
-76 861 466
+77 957 511
-77 229 171
+78 846 49
-78 490 696
+79 657 786
-79 673 695
+80 531 873
-80 186 638
+81 665 825
-81 153 898
+82 358 156
-82 532 470
+83 398 956
-83 509 456
+84 259 492
-84 873 5
+85 284 201
-85 819 632
+86 954 25
-86 777 669
+87 381 442
-87 831 520
+88 366 818
-88 620 938
+89 865 966
-89 994 700
+90 698 174
-90 623 679
+91 511 821
-91 667 686
+92 46 433
-92 439 800
+93 69 823
-93 609 653
PRECEDENCE_SECTION
+0 -0
+1 -1
+2 -2
+3 -3
+4 -4
+5 -5
+6 -6
+7 -7
+8 -8
+9 -9
+10 -10
+11 -11
+12 -12
+13 -13
+14 -14
+15 -15
+16 -16
+17 -17
+18 -18
+19 -19
+20 -20
+21 -21
+22 -22
+23 -23
+24 -24
+25 -25
+26 -26
+27 -27
+28 -28
+29 -29
+30 -30
+31 -31
+32 -32
+33 -33
+34 -34
+35 -35
+36 -36
+37 -37
+38 -38
+39 -39
+40 -40
+41 -41
+42 -42
+43 -43
+44 -44
+45 -45
+46 -46
+47 -47
+48 -48
+49 -49
+50 -50
+51 -51
+52 -52
+53 -53
+54 -54
+55 -55
+56 -56
+57 -57
+58 -58
+59 -59
+60 -60
+61 -61
+62 -62
+63 -63
+64 -64
+65 -65
+66 -66
+67 -67
+68 -68
+69 -69
+70 -70
+71 -71
+72 -72
+73 -73
+74 -74
+75 -75
+76 -76
+77 -77
+78 -78
+79 -79
+80 -80
+81 -81
+82 -82
+83 -83
+84 -84
+85 -85
+86 -86
+87 -87
+88 -88
+89 -89
+90 -90
+91 -91
+92 -92
+93 -93
EOF
